
Gurobi 11.0.3 (linux64) logging started Fri Nov 22 10:56:30 2024

Set parameter LogFile to value "/home/yihong/Coding/OR_SUC/SUC_results_bigM100000_thread4/case24_ieee_rts_theta0.1_epsilon0.05_gurobi_seed1130000_num_gen100_N_WDR100_load_scaling_factor1_exact_T24quadra_cost.txt"
Set parameter TimeLimit to value 3600
Gurobi Optimizer version 11.0.3 build v11.0.3rc0 (linux64 - "Ubuntu 20.04.6 LTS")

CPU model: AMD EPYC 7532 32-Core Processor, instruction set [SSE2|AVX|AVX2]
Thread count: 64 physical cores, 128 logical processors, using up to 4 threads

Optimize a model with 57659 rows, 29961 columns and 1325658 nonzeros
Model fingerprint: 0x4a79c200
Model has 2400 quadratic constraints
Variable types: 27461 continuous, 2500 integer (2500 binary)
Coefficient statistics:
  Matrix range     [3e-04, 1e+05]
  QMatrix range    [2e-03, 8e-03]
  QLMatrix range   [3e-01, 6e+01]
  Objective range  [1e+00, 1e+00]
  Bounds range     [1e+00, 1e+00]
  RHS range        [1e+00, 1e+05]
Presolve removed 47036 rows and 12669 columns
Presolve time: 0.42s
Presolved: 10623 rows, 17292 columns, 59798 nonzeros
Presolved model has 2400 quadratic constraint(s)
Variable types: 14797 continuous, 2495 integer (2495 binary)

Root relaxation: objective 3.177134e+04, 8927 iterations, 0.29 seconds (0.42 work units)

    Nodes    |    Current Node    |     Objective Bounds      |     Work
 Expl Unexpl |  Obj  Depth IntInf | Incumbent    BestBd   Gap | It/Node Time

     0     0 31771.3418    0   13          - 31771.3418      -     -    0s
     0     0 305110.943    0  826          - 305110.943      -     -    1s
     0     0 308326.700    0  826          - 308326.700      -     -    1s
     0     0 578152.362    0  806          - 578152.362      -     -    1s
     0     0 578733.341    0  453          - 578733.341      -     -    1s
     0     0 579670.530    0  237          - 579670.530      -     -    2s
     0     0 579687.588    0  238          - 579687.588      -     -    2s
     0     0 579687.588    0  238          - 579687.588      -     -    2s
     0     2 579687.588    0  238          - 579687.588      -     -    4s
    39    47 579726.937    9  228          - 579722.355      -  54.2    5s
H  436   289                    579835.55599 579725.144  0.02%  25.3    7s
*  436   289             175    579835.55599 579725.144  0.02%  25.3    7s

Cutting planes:
  Gomory: 6
  Implied bound: 427
  MIR: 149
  Flow cover: 200

Explored 499 nodes (36494 simplex iterations) in 8.15 seconds (11.56 work units)
Thread count was 4 (of 128 available processors)

Solution count 2: 579836 579836 

Optimal solution found (tolerance 1.00e-03)
Warning: max constraint violation (3.1927e-07) exceeds tolerance
Best objective 5.798355559887e+05, best bound 5.797260197346e+05, gap 0.0189%
